NAME 
ROWS
 N  OBJ
 L  R0      
 L  R1      
 E  R2      
 E  R3      
 E  R4      
 E  R5      
 E  R6      
 E  R7      
 E  R8      
 E  R9      
 E  R10     
 E  R11     
COLUMNS
    MARKER    'MARKER'                 'INTORG'
    I0(7)     OBJ       174
    I0(7)     R0        163
    I0(7)     R1        -180
    I0(7)     R3        6
    I0(7)     R4        19
    I0(7)     R6        17
    I0(7)     R7        16
    I0(7)     R11       1
    I1(6)     OBJ       5
    I1(6)     R0        -58
    I1(6)     R1        110
    I1(6)     R2        16
    I1(6)     R6        16
    I1(6)     R7        9
    I1(6)     R11       1
    I2(5)     OBJ       182
    I2(5)     R0        -178
    I2(5)     R1        160
    I2(5)     R5        12
    I2(5)     R6        6
    I2(5)     R11       1
    I3(6)     OBJ       -112
    I3(6)     R0        171
    I3(6)     R1        -148
    I3(6)     R3        10
    I3(6)     R6        16
    I3(6)     R7        15
    I3(6)     R11       1
    I4(4)     OBJ       -171
    I4(4)     R0        -173
    I4(4)     R1        21
    I4(4)     R7        4
    I4(4)     R11       1
    I5(4)     OBJ       -60
    I5(4)     R0        183
    I5(4)     R1        -128
    I5(4)     R4        11
    I5(4)     R11       1
    MARKER    'MARKER'                 'INTEND'
    C6(8)     OBJ       -1
    C6(8)     R0        4
    C6(8)     R1        -8
    C6(8)     R3        14
    C6(8)     R4        16
    C6(8)     R5        4
    C6(8)     R7        14
    C6(8)     R8        9
    C6(8)     R9        11
    C7(5)     OBJ       1
    C7(5)     R0        -7
    C7(5)     R1        8
    C7(5)     R2        14
    C7(5)     R3        18
    C7(5)     R9        14
    C8(6)     OBJ       5
    C8(6)     R0        -8
    C8(6)     R1        -10
    C8(6)     R3        6
    C8(6)     R5        17
    C8(6)     R6        7
    C8(6)     R8        11
    C9(9)     OBJ       -1
    C9(9)     R0        -6
    C9(9)     R1        -10
    C9(9)     R2        1
    C9(9)     R5        18
    C9(9)     R6        3
    C9(9)     R7        18
    C9(9)     R8        16
    C9(9)     R9        1
    C9(9)     R10       18
    C10(1)    R2        1
    C11(1)    R3        1
    C12(1)    R4        1
    C13(1)    R5        1
    C14(1)    R6        1
    C15(1)    R7        1
    C16(1)    R8        1
    C17(1)    R9        1
    C18(1)    R10       1
    C19(1)    R11       1
RHS
    RHS1      R0        9.7142857142857135e+00
    RHS1      R1        -1.5042857142857142e+02
    RHS1      R2        70
    RHS1      R3        74
    RHS1      R4        55
    RHS1      R5        91
    RHS1      R6        76
    RHS1      R7        60
    RHS1      R8        70
    RHS1      R9        66
    RHS1      R10       83
    RHS1      R11       2
BOUNDS
 UP BND1      I0(7)     1
 UP BND1      I1(6)     1
 UP BND1      I2(5)     1
 UP BND1      I3(6)     1
 UP BND1      I4(4)     1
 UP BND1      I5(4)     1
ENDATA
